certificates/rado_a5_c247_N49.drat
-49 0
47 0
-35 0
33 0
37 0
-21 0
-45 0
-25 0
19 0
23 0
43 0
27 0
13 0
3 0
-7 0
-31 0
-11 0
-15 0
-1 0
-5 0
-39 0
0
